Niccolite -- HCP Ni with As at octohedral sites (Unrelaxed)
3.0
  0.866025403  0.50000000  0.00000000
  0.866025403 -0.50000000  0.00000000
  0.000000000  0.00000000  2.00000000
     Ni As
     2 2
     D
     0.00000000000 0.00000000000 0.000 Ni
     0.66666666667 0.66666666667 0.500 Ni
     0.33333333333 0.33333333333 0.250 As
     0.33333333333 0.33333333333 0.750 As
