Si
1.0000000000
0 2 2
2 0 2
2 2 0
2
D
0.00 0.00 0.00 Si
0.25 0.25 0.25 Si
