New structure
   1.00000000000000
     3.0982072391092994    0.0000000000000000   -0.0000000000000000
    -1.5491036195546497    2.6831261697583990    0.0000000000000000
    -0.0000000000000000   -0.0000000000000000    5.6984418621159145
   Zr   O
     2     2
Direct
  0.0000000000000000 -0.0000000000000000 -0.0000000000000000
  0.6666659999999993  0.3333330000000032  0.5000000000000000
  0.3333330000000032  0.6666659999999993  0.2500000000000000
  0.3333330000000032  0.6666659999999993  0.7500000000000000

  0.00000000E+00  0.00000000E+00  0.00000000E+00
  0.00000000E+00  0.00000000E+00  0.00000000E+00
  0.00000000E+00  0.00000000E+00  0.00000000E+00
  0.00000000E+00  0.00000000E+00  0.00000000E+00

