ISPIN = 1 #does non spin-polarized calc.
#MAGMOM=   #initial mag. mom. of each atom.
PREC = Accurate #cutoff + wrap around errors.
IBRION= 2 #conj. grad. relaxation.
NSW=61 #numberof ionic steps taken in minimization. Make it odd.
ISIF= 3 #whether stress tensor is calculated, what is allowed to relax.
ENMAX=600 #cutoff
ISMEAR = 1 #BZ integration method (for relaxation runs).
SIGMA = 0.2 #smearing width (keep T*S < 1meV/atom). 
LWAVE = .FALSE.
LCHARG = .FALSE.
