H in fcc Ti with PAW_GGA_Ti_pv
 0
Gamma point shift
 9 9 9
 0 0 0
