SCEL1_1_1_1_0_0_0/0
1.00000000
                       3.23398686       0.00000000       0.00000000
                      -1.61699343       2.80071477       0.00000000
                       0.00000000       0.00000000       5.16867834
Zr 
2 
Direct
               0.0000000    0.0000000    0.0000000 Zr
               0.6666667    0.3333334    0.5000000 Zr

